(set-logic QF_S)
(declare-fun var0 () String)
(declare-fun var1 () Int)
(declare-fun var2 () Bool)
(declare-fun var3 () String)
(declare-fun var4 () Int)
(declare-fun var5 () Bool)
(declare-fun var6 () String)
(declare-fun var7 () Int)
(declare-fun var8 () Bool)
(assert (> (str.len (str.replace var6 var0 var6)) (str.len var6)))
(assert (> (str.len var3) (str.indexof "F@[paRSFD5" var6 var1)))
(assert (>= (str.indexof "m4ZPYcWrGz" var3 var7) (str.len var0)))
(assert (>= (str.indexof (str.replace "NAYtWrBL!r" var3 var0) (str.replace var3 var3 "l/,tlPG%A#") (str.len var3)) (str.len var6)))
(check-sat)